NAME : R204.7313.tour
COMMENT : Cost = 0_7313
COMMENT : Found by LKH [Keld Helsgaun] Wed Sep 13 19:25:19 2017
TYPE : TOUR
DIMENSION : 105
TOUR_SECTION
1
3
58
43
44
16
42
23
76
57
24
68
40
5
73
75
74
22
41
59
104
53
32
89
8
83
49
20
12
63
11
71
31
33
91
64
65
50
37
48
47
9
46
18
85
6
61
84
19
90
105
7
95
96
93
99
86
92
45
15
39
87
17
62
94
100
97
60
98
88
38
101
14
102
28
70
2
51
77
4
80
34
82
10
52
21
67
66
72
36
35
79
30
25
56
26
55
81
69
78
13
27
29
103
54
-1
EOF
